NAME: tsp35_10
COMMENT: 35-tsp problem (Padberg/Rinaldi)
TYPE: TSP
DIMENSION: 35
EDGE_WEIGHT_TYPE : EUC_2D
NODE_COORD_SECTION
1 18 32
2 6 3
3 12 15
4 31 26
5 9 37
6 1 11
7 25 31
8 33 19
9 16 3
10 39 12
11 25 3
12 29 31
13 19 29
14 12 23
15 14 39
16 23 30
17 20 3
18 39 4
19 38 37
20 4 2
21 38 14
22 18 12
23 22 5
24 34 31
25 23 30
26 12 23
27 13 2
28 11 37
29 24 39
30 4 26
31 1 34
32 22 4
33 38 3
34 32 23
35 24 21
